c b=8,c=257
p cnf 24 32
8 -16 0
8 -24 0
-8 16 0
-8 24 0
7 -15 0
7 -23 0
-7 15 0
-7 23 0
6 -14 0
6 -22 0
-6 14 0
-6 22 0
5 -13 0
5 -21 0
-5 13 0
-5 21 0
4 -12 0
4 -20 0
-4 12 0
-4 20 0
3 -11 0
3 -19 0
-3 11 0
-3 19 0
2 -10 0
2 -18 0
-2 10 0
-2 18 0
1 -9 0
1 -17 0
-1 9 0
-1 17 0
